$rem
sym_ignore true
method hf
basis mixed
fde true
PURECART 2
mem_static = 1024
mem_total = 50000
$end

$molecule
-1 1
S    0.70955    -0.28088    -1.53333
C    0.46967    -0.20843    0.13142
N    0.36180    -0.12531    1.30404
Gh  -1.4840500000    -2.4338300000    -1.1651400000
Gh  -1.0121100000    -3.3058300000    -1.4099100000
Gh  -0.8123400000    -1.7394400000    -1.4038700000
Gh  -2.2391500000     1.5097600000    -0.6372100000
Gh  -1.5256800000     2.1457600000    -0.5756400000
Gh  -1.9188100000     0.8217500000     0.0320300000
Gh  -3.4617700000    -2.3334400000    -3.0933300000
Gh  -2.7673300000    -2.5121700000    -2.4228200000
Gh  -4.1024100000    -2.9927500000    -2.7630200000
Gh   3.9845400000    -0.2681400000     0.4681400000
Gh   4.8605200000    -0.6380800000     0.3981900000
Gh   3.8680600000    -0.3193200000     1.4658300000
Gh  -0.2542800000     3.2136400000     0.0129600000
Gh  -0.5989800000     3.5516700000     0.8538000000
Gh   0.6481900000     2.9749000000     0.1576700000
Gh   3.7197500000    -1.7691700000    -3.5476700000
Gh   3.3151400000    -0.9410300000    -3.1451400000
Gh   4.0736000000    -1.3429600000    -4.3751500000
Gh  -3.5648400000    -0.3346600000     2.3116800000
Gh  -4.1172600000    -0.3774900000     3.0837500000
Gh  -3.8083200000     0.5116700000     1.8687800000
Gh   2.5693100000     0.4588900000     3.1042900000
Gh   2.6923400000     1.3784200000     3.2381200000
Gh   1.7468600000     0.2737200000     2.6150700000
Gh   0.6603700000     2.1558300000    -3.3633600000
Gh   0.7133400000     1.5413700000    -2.6540600000
Gh   1.3205300000     2.8282100000    -3.1167700000
Gh   4.0893700000     2.0240000000    -1.2987700000
Gh   3.6448400000     2.6034100000    -0.6181400000
Gh   3.7112000000     1.1745200000    -1.0736300000
Gh  -2.3331300000     1.5777000000    -3.5082300000
Gh  -2.3785600000     1.5054000000    -2.4883400000
Gh  -1.3475700000     1.6248600000    -3.6269300000
Gh  -4.9623000000    -0.7643000000    -0.5974700000
Gh  -4.5400200000    -0.7433800000     0.2773600000
Gh  -4.4109100000    -1.3730000000    -1.1706800000
Gh   1.5761700000    -3.2141300000    -3.9608000000
Gh   1.4736800000    -2.9116700000    -3.0555700000
Gh   2.4751600000    -2.8171500000    -4.0114000000
Gh  -0.9810700000    -2.3944500000     4.2895000000
Gh  -1.6633300000    -1.9917400000     4.8657300000
Gh  -1.0829700000    -2.1369700000     3.3796100000
Gh  -1.8983200000    -2.5847600000     1.6702500000
Gh  -2.3718600000    -1.7145400000     1.7112500000
Gh  -1.3928100000    -2.5490300000     0.8347100000
Gh   2.3182500000     2.7136800000     0.7021400000
Gh   2.6383400000     3.2698000000     1.3988800000
Gh   2.2239000000     1.8273400000     1.0517300000
Gh  -1.0614300000     3.6199400000     2.6296600000
Gh  -1.0886100000     2.8173700000     3.1818700000
Gh  -1.7922300000     4.1687300000     3.0502200000
Gh   2.3761500000     3.1049900000     4.0244000000
Gh   1.4939100000     3.1194400000     4.4981200000
Gh   2.9989000000     3.4027600000     4.7446400000
Gh  -1.7914800000     1.6701500000     4.5368700000
Gh  -2.1532700000     1.8932400000     5.4194500000
Gh  -1.9458300000     0.7188600000     4.4589700000
Gh  -0.5021100000    -4.7634200000    -1.7154700000
Gh  -0.3369100000    -5.3384100000    -0.9637300000
Gh   0.0303700000    -5.2633600000    -2.3854500000
$end

$fde
import_vmat true
debug true
$end

$basis
S 1
S   6   1.00
  2.1917100000D+04  1.8692408490D-03
  3.3014900000D+03  1.4230306460D-02
  7.5414600000D+02  6.9696231660D-02
  2.1271100000D+02  2.3848710830D-01
  6.7989600000D+01  4.8330721950D-01
  2.3051500000D+01  3.3807415360D-01
SP   6   1.00
  4.2373500000D+02  -2.3767704990D-03  4.0610099820D-03
  1.0071000000D+02  -3.1693006650D-02  3.0681299860D-02
  3.2159900000D+01  -1.1331702380D-01  1.3045199940D-01
  1.1807900000D+01  5.6090011770D-02  3.2720499850D-01
  4.6311000000D+00  5.9225512430D-01  4.5285099800D-01
  1.8702500000D+00  4.5500609550D-01  2.5604199890D-01
SP   3   1.00
  2.6158400000D+00  -2.5037311420D-01  -1.4510489550D-02
  9.2216700000D-01  6.6956763100D-02  3.1026277650D-01
  3.4128700000D-01  1.0545062690D+00  7.5448245650D-01
SP   1   1.00
  1.1716700000D-01  1.0000000000D+00  1.0000000000D+00
SP   1   1.00
  4.0500000000D-02  1.0000000000D+00  1.0000000000D+00
D   1   1.00
  6.5000000000D-01  1.0000000000D+00
****
C 2
S   6   1.00
  3.0475248800D+03  1.8347371320D-03
  4.5736951800D+02  1.4037322810D-02
  1.0394868500D+02  6.8842622260D-02
  2.9210155300D+01  2.3218444320D-01
  9.2866629600D+00  4.6794134840D-01
  3.1639269600D+00  3.6231198530D-01
SP   3   1.00
  7.8682723500D+00  -1.1933241980D-01  6.8999066590D-02
  1.8812885400D+00  -1.6085415170D-01  3.1642396100D-01
  5.4424925800D-01  1.1434564380D+00  7.4430829090D-01
SP   1   1.00
  1.6871447820D-01  1.0000000000D+00  1.0000000000D+00
SP   1   1.00
  4.3800000000D-02  1.0000000000D+00  1.0000000000D+00
D   1   1.00
  8.0000000000D-01  1.0000000000D+00
****
N 3
S   6   1.00
  4.1735114600D+03  1.8347721600D-03
  6.2745791100D+02  1.3994627000D-02
  1.4290209300D+02  6.8586551810D-02
  4.0234329300D+01  2.3224087300D-01
  1.2820212900D+01  4.6906994810D-01
  4.3904370100D+00  3.6045519910D-01
SP   3   1.00
  1.1626361860D+01  -1.1496118170D-01  6.7579743880D-02
  2.7162798070D+00  -1.6911747860D-01  3.2390729590D-01
  7.7221839660D-01  1.1458519470D+00  7.4089513980D-01
SP   1   1.00
  2.1203149750D-01  1.0000000000D+00  1.0000000000D+00
SP   1   1.00
  6.3900000000D-02  1.0000000000D+00  1.0000000000D+00
D   1   1.00
  8.0000000000D-01  1.0000000000D+00
****
O 4
SP   1   1.00
  8.4500000000D-02  1.0000000000D+00  1.0000000000D+00
****
H 5
S   1   1.00
  1.6127775880D-01  1.0000000000D+00
****
H 6
S   1   1.00
  1.6127775880D-01  1.0000000000D+00
****
O 7
SP   1   1.00
  8.4500000000D-02  1.0000000000D+00  1.0000000000D+00
****
H 8
S   1   1.00
  1.6127775880D-01  1.0000000000D+00
****
H 9
S   1   1.00
  1.6127775880D-01  1.0000000000D+00
****
O 10
SP   1   1.00
  8.4500000000D-02  1.0000000000D+00  1.0000000000D+00
****
H 11
S   1   1.00
  1.6127775880D-01  1.0000000000D+00
****
H 12
S   1   1.00
  1.6127775880D-01  1.0000000000D+00
****
O 13
SP   1   1.00
  8.4500000000D-02  1.0000000000D+00  1.0000000000D+00
****
H 14
S   1   1.00
  1.6127775880D-01  1.0000000000D+00
****
H 15
S   1   1.00
  1.6127775880D-01  1.0000000000D+00
****
O 16
SP   1   1.00
  8.4500000000D-02  1.0000000000D+00  1.0000000000D+00
****
H 17
S   1   1.00
  1.6127775880D-01  1.0000000000D+00
****
H 18
S   1   1.00
  1.6127775880D-01  1.0000000000D+00
****
O 19
SP   1   1.00
  8.4500000000D-02  1.0000000000D+00  1.0000000000D+00
****
H 20
S   1   1.00
  1.6127775880D-01  1.0000000000D+00
****
H 21
S   1   1.00
  1.6127775880D-01  1.0000000000D+00
****
O 22
SP   1   1.00
  8.4500000000D-02  1.0000000000D+00  1.0000000000D+00
****
H 23
S   1   1.00
  1.6127775880D-01  1.0000000000D+00
****
H 24
S   1   1.00
  1.6127775880D-01  1.0000000000D+00
****
O 25
SP   1   1.00
  8.4500000000D-02  1.0000000000D+00  1.0000000000D+00
****
H 26
S   1   1.00
  1.6127775880D-01  1.0000000000D+00
****
H 27
S   1   1.00
  1.6127775880D-01  1.0000000000D+00
****
O 28
SP   1   1.00
  8.4500000000D-02  1.0000000000D+00  1.0000000000D+00
****
H 29
S   1   1.00
  1.6127775880D-01  1.0000000000D+00
****
H 30
S   1   1.00
  1.6127775880D-01  1.0000000000D+00
****
O 31
SP   1   1.00
  8.4500000000D-02  1.0000000000D+00  1.0000000000D+00
****
H 32
S   1   1.00
  1.6127775880D-01  1.0000000000D+00
****
H 33
S   1   1.00
  1.6127775880D-01  1.0000000000D+00
****
O 34
SP   1   1.00
  8.4500000000D-02  1.0000000000D+00  1.0000000000D+00
****
H 35
S   1   1.00
  1.6127775880D-01  1.0000000000D+00
****
H 36
S   1   1.00
  1.6127775880D-01  1.0000000000D+00
****
O 37
SP   1   1.00
  8.4500000000D-02  1.0000000000D+00  1.0000000000D+00
****
H 38
S   1   1.00
  1.6127775880D-01  1.0000000000D+00
****
H 39
S   1   1.00
  1.6127775880D-01  1.0000000000D+00
****
O 40
SP   1   1.00
  8.4500000000D-02  1.0000000000D+00  1.0000000000D+00
****
H 41
S   1   1.00
  1.6127775880D-01  1.0000000000D+00
****
H 42
S   1   1.00
  1.6127775880D-01  1.0000000000D+00
****
O 43
SP   1   1.00
  8.4500000000D-02  1.0000000000D+00  1.0000000000D+00
****
H 44
S   1   1.00
  1.6127775880D-01  1.0000000000D+00
****
H 45
S   1   1.00
  1.6127775880D-01  1.0000000000D+00
****
O 46
SP   1   1.00
  8.4500000000D-02  1.0000000000D+00  1.0000000000D+00
****
H 47
S   1   1.00
  1.6127775880D-01  1.0000000000D+00
****
H 48
S   1   1.00
  1.6127775880D-01  1.0000000000D+00
****
O 49
SP   1   1.00
  8.4500000000D-02  1.0000000000D+00  1.0000000000D+00
****
H 50
S   1   1.00
  1.6127775880D-01  1.0000000000D+00
****
H 51
S   1   1.00
  1.6127775880D-01  1.0000000000D+00
****
O 52
SP   1   1.00
  8.4500000000D-02  1.0000000000D+00  1.0000000000D+00
****
H 53
S   1   1.00
  1.6127775880D-01  1.0000000000D+00
****
H 54
S   1   1.00
  1.6127775880D-01  1.0000000000D+00
****
O 55
SP   1   1.00
  8.4500000000D-02  1.0000000000D+00  1.0000000000D+00
****
H 56
S   1   1.00
  1.6127775880D-01  1.0000000000D+00
****
H 57
S   1   1.00
  1.6127775880D-01  1.0000000000D+00
****
O 58
SP   1   1.00
  8.4500000000D-02  1.0000000000D+00  1.0000000000D+00
****
H 59
S   1   1.00
  1.6127775880D-01  1.0000000000D+00
****
H 60
S   1   1.00
  1.6127775880D-01  1.0000000000D+00
****
O 61
SP   1   1.00
  8.4500000000D-02  1.0000000000D+00  1.0000000000D+00
****
H 62
S   1   1.00
  1.6127775880D-01  1.0000000000D+00
****
H 63
S   1   1.00
  1.6127775880D-01  1.0000000000D+00
****
$end
@@@

$rem
sym_ignore = true
method = adc(2)
scf_guess = read
fde_read_pot = true
ee_states = 1
basis = mixed
PURECART 2
mem_static = 1024
mem_total = 50000
adc_davidson_maxiter = 900
adc_print = 3
adc_prop_es = true
gen_scfman = false
molden_format = true
fde_export_density = true
$end

$molecule
-1 1
S    0.70955    -0.28088    -1.53333
C    0.46967    -0.20843    0.13142
N    0.36180    -0.12531    1.30404
Gh  -1.4840500000    -2.4338300000    -1.1651400000
Gh  -1.0121100000    -3.3058300000    -1.4099100000
Gh  -0.8123400000    -1.7394400000    -1.4038700000
Gh  -2.2391500000     1.5097600000    -0.6372100000
Gh  -1.5256800000     2.1457600000    -0.5756400000
Gh  -1.9188100000     0.8217500000     0.0320300000
Gh  -3.4617700000    -2.3334400000    -3.0933300000
Gh  -2.7673300000    -2.5121700000    -2.4228200000
Gh  -4.1024100000    -2.9927500000    -2.7630200000
Gh   3.9845400000    -0.2681400000     0.4681400000
Gh   4.8605200000    -0.6380800000     0.3981900000
Gh   3.8680600000    -0.3193200000     1.4658300000
Gh  -0.2542800000     3.2136400000     0.0129600000
Gh  -0.5989800000     3.5516700000     0.8538000000
Gh   0.6481900000     2.9749000000     0.1576700000
Gh   3.7197500000    -1.7691700000    -3.5476700000
Gh   3.3151400000    -0.9410300000    -3.1451400000
Gh   4.0736000000    -1.3429600000    -4.3751500000
Gh  -3.5648400000    -0.3346600000     2.3116800000
Gh  -4.1172600000    -0.3774900000     3.0837500000
Gh  -3.8083200000     0.5116700000     1.8687800000
Gh   2.5693100000     0.4588900000     3.1042900000
Gh   2.6923400000     1.3784200000     3.2381200000
Gh   1.7468600000     0.2737200000     2.6150700000
Gh   0.6603700000     2.1558300000    -3.3633600000
Gh   0.7133400000     1.5413700000    -2.6540600000
Gh   1.3205300000     2.8282100000    -3.1167700000
Gh   4.0893700000     2.0240000000    -1.2987700000
Gh   3.6448400000     2.6034100000    -0.6181400000
Gh   3.7112000000     1.1745200000    -1.0736300000
Gh  -2.3331300000     1.5777000000    -3.5082300000
Gh  -2.3785600000     1.5054000000    -2.4883400000
Gh  -1.3475700000     1.6248600000    -3.6269300000
Gh  -4.9623000000    -0.7643000000    -0.5974700000
Gh  -4.5400200000    -0.7433800000     0.2773600000
Gh  -4.4109100000    -1.3730000000    -1.1706800000
Gh   1.5761700000    -3.2141300000    -3.9608000000
Gh   1.4736800000    -2.9116700000    -3.0555700000
Gh   2.4751600000    -2.8171500000    -4.0114000000
Gh  -0.9810700000    -2.3944500000     4.2895000000
Gh  -1.6633300000    -1.9917400000     4.8657300000
Gh  -1.0829700000    -2.1369700000     3.3796100000
Gh  -1.8983200000    -2.5847600000     1.6702500000
Gh  -2.3718600000    -1.7145400000     1.7112500000
Gh  -1.3928100000    -2.5490300000     0.8347100000
Gh   2.3182500000     2.7136800000     0.7021400000
Gh   2.6383400000     3.2698000000     1.3988800000
Gh   2.2239000000     1.8273400000     1.0517300000
Gh  -1.0614300000     3.6199400000     2.6296600000
Gh  -1.0886100000     2.8173700000     3.1818700000
Gh  -1.7922300000     4.1687300000     3.0502200000
Gh   2.3761500000     3.1049900000     4.0244000000
Gh   1.4939100000     3.1194400000     4.4981200000
Gh   2.9989000000     3.4027600000     4.7446400000
Gh  -1.7914800000     1.6701500000     4.5368700000
Gh  -2.1532700000     1.8932400000     5.4194500000
Gh  -1.9458300000     0.7188600000     4.4589700000
Gh  -0.5021100000    -4.7634200000    -1.7154700000
Gh  -0.3369100000    -5.3384100000    -0.9637300000
Gh   0.0303700000    -5.2633600000    -2.3854500000
$end

$basis
S 1
S   6   1.00
  2.1917100000D+04  1.8692408490D-03
  3.3014900000D+03  1.4230306460D-02
  7.5414600000D+02  6.9696231660D-02
  2.1271100000D+02  2.3848710830D-01
  6.7989600000D+01  4.8330721950D-01
  2.3051500000D+01  3.3807415360D-01
SP   6   1.00
  4.2373500000D+02  -2.3767704990D-03  4.0610099820D-03
  1.0071000000D+02  -3.1693006650D-02  3.0681299860D-02
  3.2159900000D+01  -1.1331702380D-01  1.3045199940D-01
  1.1807900000D+01  5.6090011770D-02  3.2720499850D-01
  4.6311000000D+00  5.9225512430D-01  4.5285099800D-01
  1.8702500000D+00  4.5500609550D-01  2.5604199890D-01
SP   3   1.00
  2.6158400000D+00  -2.5037311420D-01  -1.4510489550D-02
  9.2216700000D-01  6.6956763100D-02  3.1026277650D-01
  3.4128700000D-01  1.0545062690D+00  7.5448245650D-01
SP   1   1.00
  1.1716700000D-01  1.0000000000D+00  1.0000000000D+00
SP   1   1.00
  4.0500000000D-02  1.0000000000D+00  1.0000000000D+00
D   1   1.00
  6.5000000000D-01  1.0000000000D+00
****
C 2
S   6   1.00
  3.0475248800D+03  1.8347371320D-03
  4.5736951800D+02  1.4037322810D-02
  1.0394868500D+02  6.8842622260D-02
  2.9210155300D+01  2.3218444320D-01
  9.2866629600D+00  4.6794134840D-01
  3.1639269600D+00  3.6231198530D-01
SP   3   1.00
  7.8682723500D+00  -1.1933241980D-01  6.8999066590D-02
  1.8812885400D+00  -1.6085415170D-01  3.1642396100D-01
  5.4424925800D-01  1.1434564380D+00  7.4430829090D-01
SP   1   1.00
  1.6871447820D-01  1.0000000000D+00  1.0000000000D+00
SP   1   1.00
  4.3800000000D-02  1.0000000000D+00  1.0000000000D+00
D   1   1.00
  8.0000000000D-01  1.0000000000D+00
****
N 3
S   6   1.00
  4.1735114600D+03  1.8347721600D-03
  6.2745791100D+02  1.3994627000D-02
  1.4290209300D+02  6.8586551810D-02
  4.0234329300D+01  2.3224087300D-01
  1.2820212900D+01  4.6906994810D-01
  4.3904370100D+00  3.6045519910D-01
SP   3   1.00
  1.1626361860D+01  -1.1496118170D-01  6.7579743880D-02
  2.7162798070D+00  -1.6911747860D-01  3.2390729590D-01
  7.7221839660D-01  1.1458519470D+00  7.4089513980D-01
SP   1   1.00
  2.1203149750D-01  1.0000000000D+00  1.0000000000D+00
SP   1   1.00
  6.3900000000D-02  1.0000000000D+00  1.0000000000D+00
D   1   1.00
  8.0000000000D-01  1.0000000000D+00
****
O 4
SP   1   1.00
  8.4500000000D-02  1.0000000000D+00  1.0000000000D+00
****
H 5
S   1   1.00
  1.6127775880D-01  1.0000000000D+00
****
H 6
S   1   1.00
  1.6127775880D-01  1.0000000000D+00
****
O 7
SP   1   1.00
  8.4500000000D-02  1.0000000000D+00  1.0000000000D+00
****
H 8
S   1   1.00
  1.6127775880D-01  1.0000000000D+00
****
H 9
S   1   1.00
  1.6127775880D-01  1.0000000000D+00
****
O 10
SP   1   1.00
  8.4500000000D-02  1.0000000000D+00  1.0000000000D+00
****
H 11
S   1   1.00
  1.6127775880D-01  1.0000000000D+00
****
H 12
S   1   1.00
  1.6127775880D-01  1.0000000000D+00
****
O 13
SP   1   1.00
  8.4500000000D-02  1.0000000000D+00  1.0000000000D+00
****
H 14
S   1   1.00
  1.6127775880D-01  1.0000000000D+00
****
H 15
S   1   1.00
  1.6127775880D-01  1.0000000000D+00
****
O 16
SP   1   1.00
  8.4500000000D-02  1.0000000000D+00  1.0000000000D+00
****
H 17
S   1   1.00
  1.6127775880D-01  1.0000000000D+00
****
H 18
S   1   1.00
  1.6127775880D-01  1.0000000000D+00
****
O 19
SP   1   1.00
  8.4500000000D-02  1.0000000000D+00  1.0000000000D+00
****
H 20
S   1   1.00
  1.6127775880D-01  1.0000000000D+00
****
H 21
S   1   1.00
  1.6127775880D-01  1.0000000000D+00
****
O 22
SP   1   1.00
  8.4500000000D-02  1.0000000000D+00  1.0000000000D+00
****
H 23
S   1   1.00
  1.6127775880D-01  1.0000000000D+00
****
H 24
S   1   1.00
  1.6127775880D-01  1.0000000000D+00
****
O 25
SP   1   1.00
  8.4500000000D-02  1.0000000000D+00  1.0000000000D+00
****
H 26
S   1   1.00
  1.6127775880D-01  1.0000000000D+00
****
H 27
S   1   1.00
  1.6127775880D-01  1.0000000000D+00
****
O 28
SP   1   1.00
  8.4500000000D-02  1.0000000000D+00  1.0000000000D+00
****
H 29
S   1   1.00
  1.6127775880D-01  1.0000000000D+00
****
H 30
S   1   1.00
  1.6127775880D-01  1.0000000000D+00
****
O 31
SP   1   1.00
  8.4500000000D-02  1.0000000000D+00  1.0000000000D+00
****
H 32
S   1   1.00
  1.6127775880D-01  1.0000000000D+00
****
H 33
S   1   1.00
  1.6127775880D-01  1.0000000000D+00
****
O 34
SP   1   1.00
  8.4500000000D-02  1.0000000000D+00  1.0000000000D+00
****
H 35
S   1   1.00
  1.6127775880D-01  1.0000000000D+00
****
H 36
S   1   1.00
  1.6127775880D-01  1.0000000000D+00
****
O 37
SP   1   1.00
  8.4500000000D-02  1.0000000000D+00  1.0000000000D+00
****
H 38
S   1   1.00
  1.6127775880D-01  1.0000000000D+00
****
H 39
S   1   1.00
  1.6127775880D-01  1.0000000000D+00
****
O 40
SP   1   1.00
  8.4500000000D-02  1.0000000000D+00  1.0000000000D+00
****
H 41
S   1   1.00
  1.6127775880D-01  1.0000000000D+00
****
H 42
S   1   1.00
  1.6127775880D-01  1.0000000000D+00
****
O 43
SP   1   1.00
  8.4500000000D-02  1.0000000000D+00  1.0000000000D+00
****
H 44
S   1   1.00
  1.6127775880D-01  1.0000000000D+00
****
H 45
S   1   1.00
  1.6127775880D-01  1.0000000000D+00
****
O 46
SP   1   1.00
  8.4500000000D-02  1.0000000000D+00  1.0000000000D+00
****
H 47
S   1   1.00
  1.6127775880D-01  1.0000000000D+00
****
H 48
S   1   1.00
  1.6127775880D-01  1.0000000000D+00
****
O 49
SP   1   1.00
  8.4500000000D-02  1.0000000000D+00  1.0000000000D+00
****
H 50
S   1   1.00
  1.6127775880D-01  1.0000000000D+00
****
H 51
S   1   1.00
  1.6127775880D-01  1.0000000000D+00
****
O 52
SP   1   1.00
  8.4500000000D-02  1.0000000000D+00  1.0000000000D+00
****
H 53
S   1   1.00
  1.6127775880D-01  1.0000000000D+00
****
H 54
S   1   1.00
  1.6127775880D-01  1.0000000000D+00
****
O 55
SP   1   1.00
  8.4500000000D-02  1.0000000000D+00  1.0000000000D+00
****
H 56
S   1   1.00
  1.6127775880D-01  1.0000000000D+00
****
H 57
S   1   1.00
  1.6127775880D-01  1.0000000000D+00
****
O 58
SP   1   1.00
  8.4500000000D-02  1.0000000000D+00  1.0000000000D+00
****
H 59
S   1   1.00
  1.6127775880D-01  1.0000000000D+00
****
H 60
S   1   1.00
  1.6127775880D-01  1.0000000000D+00
****
O 61
SP   1   1.00
  8.4500000000D-02  1.0000000000D+00  1.0000000000D+00
****
H 62
S   1   1.00
  1.6127775880D-01  1.0000000000D+00
****
H 63
S   1   1.00
  1.6127775880D-01  1.0000000000D+00
****
$end
